c Random CNF formula
p cnf 30 30
-28 -17 27 0
24 -12 -29 0
23 9 -30 0
30 15 -12 0
-17 26 -21 0
-13 -11 1 0
-28 18 25 0
-3 -6 7 0
18 28 15 0
8 -28 -17 0
10 -18 -24 0
6 15 28 0
8 -1 12 0
13 -6 -21 0
-26 28 4 0
-18 -24 -22 0
-24 -15 -6 0
12 4 29 0
-29 -9 -2 0
-24 -4 -25 0
-27 11 -14 0
-4 24 -12 0
-11 19 -7 0
-10 -15 -7 0
4 11 9 0
25 -17 11 0
28 11 12 0
-8 -16 -22 0
13 -9 -11 0
9 12 18 0
